unknown
(model
; cardinality of BoundSet is 2
(declare-sort BoundSet 0)
; rep: @uc_BoundSet_0
; rep: @uc_BoundSet_1
; cardinality of UnboundSet is 1
(declare-sort UnboundSet 0)
(declare-fun groundTerm_3 () UnboundSet)
(define-fun HaveData ((BOUND_VARIABLE_395 BoundSet) (BOUND_VARIABLE_396 BoundSet)) Bool true)
(define-fun IsTooLittle ((BOUND_VARIABLE_399 BoundSet)) Bool true)
(define-fun IsUnrepresentative ((BOUND_VARIABLE_399 BoundSet)) Bool false)
(define-fun MakeClaim ((BOUND_VARIABLE_395 BoundSet) (BOUND_VARIABLE_396 BoundSet)) Bool false)
)
sat
(model
; cardinality of BoundSet is 1
(declare-sort BoundSet 0)
; rep: @uc_BoundSet_0
; cardinality of UnboundSet is 1
(declare-sort UnboundSet 0)
(declare-fun groundTerm_5 () UnboundSet)
(define-fun HaveData ((BOUND_VARIABLE_411 BoundSet) (BOUND_VARIABLE_412 BoundSet)) Bool true)
(define-fun IsTooLittle ((BOUND_VARIABLE_415 BoundSet)) Bool true)
(define-fun IsUnrepresentative ((BOUND_VARIABLE_415 BoundSet)) Bool false)
(define-fun MakeClaim ((BOUND_VARIABLE_411 BoundSet) (BOUND_VARIABLE_412 BoundSet)) Bool true)
)
